516941
48,13,24,34,99,50,73,30,29,35,4,91,90,77,61,39,71,41,32,49,96,37,47,36,69,12,44,27,59,66,87,10,92,63,86,81,75,6,7,38,78,101,60,3,65,74,17,88,95,103,84,9,42,106,100,25,46,82,22,55,76,80,2,31,5,97,52,98,16,20,64,67,40,19,11,105,72,94,18,33,83,14,23,58,28,43,51,68,70,104,89,93,57,85,45,62,56,79,8,54,53,1,15,26,102,21